DATASET = "thpack2";
INSTANCE = "014";

WIDTH = 233;
HEIGHT = 220;
LENGTH = 587;

NO_OF_SHAPES = 5;
size = [|
  68,48,31 |
  104,80,63 |
  82,46,21 |
  114,78,60 |
  90,74,66 |
|];

verticality = [|
  0,1,1 |
  1,1,1 |
  0,0,1 |
  1,1,1 |
  1,1,1 |
|];

box_count = [
  22,
  16,
  20,
  16,
  21,
];
